N = 16;
M = 36;
Edge_Start = [1, 1, 2, 3, 3, 4, 5, 6, 7, 7, 8, 9, 9, 10, 12, 13, 14, 15, 2, 6, 3, 4, 8, 5, 10, 7, 8, 12, 9, 10, 14, 11, 13, 14, 15, 16];
Edge_End = [2, 6, 3, 4, 8, 5, 10, 7, 8, 12, 9, 10, 14, 11, 13, 14, 15, 16, 1, 1, 2, 3, 3, 4, 5, 6, 7, 7, 8, 9, 9, 10, 12, 13, 14, 15];
L = [1, 1, 1, 1, 1, 1, 1, 1, 1, 1, 1, 1, 1, 1, 1, 1, 1, 1, 1, 1, 1, 1, 1, 1, 1, 1, 1, 1, 1, 1, 1, 1, 1, 1, 1, 1];
T = [1, 1, 1, 1, 1, 1, 1, 1, 1, 1, 1, 1, 1, 1, 1, 1, 1, 1, 1, 1, 1, 1, 1, 1, 1, 1, 1, 1, 1, 1, 1, 1, 1, 1, 1, 1];
Lower_Bound = [0, 2, 3, 5, 5, 2, 2, 3, 4, 5, 6, 4, 4, 5, 7, 7];
Upper_Bound = [1, 3, 4, 8, 8, 5, 9, 4, 11, 6, 7, 6, 6, 23, 10, 14];
Start = 1;
End = 16;
Time = 14;
